p wcnf 170 85 86 
1 12 -143 0 
1 147 72 0 
1 130 -126 0 
1 -127 -3 0 
1 -140 -20 0 
1 -139 2 0 
1 161 101 0 
1 -16 -40 0 
1 87 -105 0 
1 112 135 0 
1 146 -105 0 
1 -64 -6 0 
1 -146 -10 0 
1 73 -64 0 
1 -58 70 0 
1 -75 5 0 
1 -155 -120 0 
1 40 41 0 
1 -151 -126 0 
1 26 111 0 
1 -160 -14 0 
1 -157 101 0 
1 -64 -31 0 
1 -29 -33 0 
1 136 -108 0 
1 -110 148 0 
1 -3 143 0 
1 49 -117 0 
1 15 -96 0 
1 -77 148 0 
1 62 106 0 
1 -97 -108 0 
1 -133 25 0 
1 -160 84 0 
1 -88 -64 0 
1 93 61 0 
1 20 154 0 
1 -107 91 0 
1 10 -109 0 
1 -17 110 0 
1 108 -161 0 
1 -120 -142 0 
1 119 153 0 
1 -81 -23 0 
1 73 -105 0 
1 13 -126 0 
1 147 -145 0 
1 -152 -11 0 
1 -159 -11 0 
1 -66 -54 0 
1 -142 -92 0 
1 153 144 0 
1 125 156 0 
1 32 -144 0 
1 -103 128 0 
1 -150 -42 0 
1 -22 -150 0 
1 9 -83 0 
1 -31 -3 0 
1 151 19 0 
1 -164 27 0 
1 -149 -66 0 
1 -93 -21 0 
1 -107 -113 0 
1 148 106 0 
1 11 -10 0 
1 36 51 0 
1 -95 74 0 
1 26 -41 0 
1 12 94 0 
1 110 -49 0 
1 118 155 0 
1 83 -52 0 
1 -124 142 0 
1 -71 -35 0 
1 54 -5 0 
1 -47 -129 0 
1 138 -52 0 
1 112 -117 0 
1 -138 -127 0 
1 -147 77 0 
1 158 4 0 
1 83 65 0 
1 -134 72 0 
1 44 -139 0 
